
List of user-set options:

                                    Name   Value                used
                linear_scaling_on_demand = no                    yes
                           linear_solver = ma86                  yes
                   linear_system_scaling = mc19                  yes
                              ma86_small = 1e-30                 yes
                                max_iter = 500                   yes
                    max_refinement_steps = 20                    yes
                    min_refinement_steps = 5                     yes
                                 mu_init = 1e-06                 yes
           mu_superlinear_decrease_power = 1.25                  yes
                       mumps_mem_percent = 10000                  no
                            mumps_pivtol = 1e-08                  no
                         mumps_pivtolmax = 0.2                    no
                   nlp_scaling_min_value = 1e-08                 yes
                        option_file_name = ./ipopt.opt           yes
                             output_file = ./tmp/ipopt_output_tmp.output  yes
                      print_user_options = yes                   yes
        required_infeasibility_reduction = 1                      no
                   warm_start_bound_frac = 1e-20                 yes
                   warm_start_bound_push = 1e-20                 yes
                   warm_start_init_point = yes                   yes
              warm_start_mult_bound_push = 1e-20                 yes
                warm_start_mult_init_max = 1e+20                 yes
             warm_start_slack_bound_frac = 1e-20                 yes
             warm_start_slack_bound_push = 1e-20                 yes

******************************************************************************
This program contains Ipopt, a library for large-scale nonlinear optimization.
 Ipopt is released as open source code under the Eclipse Public License (EPL).
         For more information visit http://projects.coin-or.org/Ipopt
******************************************************************************

This is Ipopt version 3.12.10, running with linear solver ma86.

Number of nonzeros in equality constraint Jacobian...:   117140
Number of nonzeros in inequality constraint Jacobian.:      213
Number of nonzeros in Lagrangian Hessian.............:    47462

Total number of variables............................:    29971
                     variables with only lower bounds:    11312
                variables with lower and upper bounds:    15132
                     variables with only upper bounds:        0
Total number of equality constraints.................:    29864
Total number of inequality constraints...............:       25
        inequality constraints with only lower bounds:        4
   inequality constraints with lower and upper bounds:        0
        inequality constraints with only upper bounds:       21

iter    objective    inf_pr   inf_du lg(mu)  ||d||  lg(rg) alpha_du alpha_pr  ls
   0 -1.3141702e-01 3.49e-03 1.20e-02  -6.0 0.00e+00    -  0.00e+00 0.00e+00   0
   1 -1.3141730e-01 3.49e-03 6.26e-02  -6.0 5.83e+09    -  4.61e-09 1.44e-09f  1
   2 -1.3141703e-01 2.88e-02 3.44e-01  -6.0 2.15e+04    -  4.03e-04 1.93e-03f  1
   3 -1.3141669e-01 4.39e-02 5.59e-01  -6.0 2.14e+04    -  5.37e-03 1.41e-03f  1
   4 -1.3136996e-01 5.21e+01 1.82e+01  -6.0 2.49e+04    -  4.84e-04 7.05e-02f  1
   5 -1.3137073e-01 5.25e+01 3.47e+01  -6.0 1.04e+06    -  1.91e-04 1.71e-04h  4
   6 -1.3136657e-01 5.22e+01 1.09e+02  -6.0 1.15e+04    -  8.41e-03 1.45e-02h  1
   7 -1.3135505e-01 5.13e+01 4.12e+02  -6.0 9.34e+03    -  5.43e-02 2.79e-02h  1
   8 -1.3135474e-01 5.12e+01 1.32e+02  -6.0 4.12e+01  -4.0 2.12e-03 1.36e-03h  1
   9 -1.3134930e-01 5.00e+01 3.51e+02  -6.0 4.13e+01  -4.5 3.93e-03 2.28e-02h  1
iter    objective    inf_pr   inf_du lg(mu)  ||d||  lg(rg) alpha_du alpha_pr  ls
  10 -1.3134727e-01 4.96e+01 3.57e+02  -6.0 4.00e+01  -5.0 2.03e-02 9.29e-03h  1
  11 -1.3134676e-01 4.94e+01 3.52e+02  -6.0 5.93e+01  -5.4 9.68e-03 3.50e-03h  1
  12 -1.3134324e-01 4.87e+01 3.48e+02  -6.0 1.03e+02  -5.9 1.28e-02 1.43e-02h  1
  13 -1.3134058e-01 4.80e+01 3.44e+02  -6.0 1.21e+02  -6.4 1.69e-02 1.40e-02h  1
  14 -1.3134309e-01 4.75e+01 3.59e+02  -6.0 1.90e+02  -6.9 6.02e-02 1.03e-02h  1
  15 -1.3134842e-01 4.70e+01 3.38e+02  -6.0 3.41e+02  -7.3 1.78e-03 1.00e-02h  1
  16 -1.3134848e-01 4.68e+01 3.40e+02  -6.0 1.48e+02  -7.8 8.24e-03 4.33e-03h  1
  17 -1.3134870e-01 4.68e+01 3.40e+02  -6.0 4.39e+02  -8.3 2.96e-04 4.21e-04h  1
  18 -1.3134872e-01 4.68e+01 3.40e+02  -6.0 5.89e+02  -8.8 1.62e-05 2.27e-05h  1
  19 -1.3119764e-01 4.13e+01 1.32e+03  -6.0 2.36e+02  -8.3 1.21e-03 1.19e-01f  2
iter    objective    inf_pr   inf_du lg(mu)  ||d||  lg(rg) alpha_du alpha_pr  ls
  20 -1.3116913e-01 3.82e+01 1.22e+03  -6.0 9.30e+01  -6.1 9.28e-02 7.40e-02h  1
  21 -1.3112477e-01 2.54e+01 8.08e+02  -6.0 9.31e+01  -6.6 4.14e-01 3.34e-01h  1
  22 -1.3190911e-01 2.21e+01 6.97e+02  -6.0 1.80e+02  -7.1 4.42e-03 1.32e-01h  1
  23 -1.3193314e-01 2.14e+01 6.77e+02  -6.0 6.16e+01  -7.5 2.52e-02 2.95e-02h  1
  24 -1.3195098e-01 2.11e+01 6.86e+02  -6.0 1.26e+02  -8.0 2.76e-01 1.49e-02f  1
  25 -1.3235430e-01 1.23e+01 3.96e+02  -6.0 1.21e+02  -8.5 9.08e-02 4.19e-01h  1
  26 -1.3253093e-01 2.48e+00 1.74e+02  -6.0 1.47e+02  -9.0 1.14e-01 7.98e-01h  1
  27 -1.3257324e-01 1.86e+01 1.27e+02  -6.0 2.40e+01  -6.7 4.14e-01 5.17e-01h  1
  28 -1.3256899e-01 1.76e+01 1.26e+02  -6.0 9.66e+01  -7.2 4.03e-01 7.11e-02h  1
  29 -1.3262620e-01 5.77e+01 1.43e+02  -6.0 7.69e+01  -7.7 2.40e-01 3.44e-01h  1
iter    objective    inf_pr   inf_du lg(mu)  ||d||  lg(rg) alpha_du alpha_pr  ls
  30 -1.3272817e-01 5.44e+01 2.40e+02  -6.0 1.05e+04    -  6.82e-02 5.79e-02h  1
  31 -1.3272278e-01 4.19e+01 1.70e+02  -6.0 1.94e+02  -8.2 3.94e-01 2.32e-01h  1
  32 -1.3271489e-01 3.24e+01 1.32e+02  -6.0 1.07e+02  -7.7 1.82e-01 2.24e-01h  1
  33 -1.3275094e-01 3.17e+01 1.31e+02  -6.0 7.51e+03    -  8.25e-03 2.33e-02h  1
  34 -1.3280007e-01 3.06e+01 1.14e+03  -6.0 6.05e+03    -  8.92e-02 3.35e-02f  1
  35 -1.3297631e-01 2.62e+01 1.04e+03  -6.0 5.98e+03    -  3.37e-02 1.45e-01h  1
  36 -1.3304378e-01 2.34e+01 8.05e+02  -6.0 4.89e+03    -  1.35e-01 1.07e-01h  1
  37 -1.3310936e-01 2.09e+01 4.76e+02  -6.0 3.50e+03    -  4.30e-01 1.07e-01h  1
  38 -1.3310881e-01 2.04e+01 4.36e+02  -6.0 1.35e+04    -  3.33e-02 2.68e-02h  1
  39 -1.3310595e-01 8.33e+00 3.52e+02  -6.0 1.24e+02  -8.2 4.31e-03 5.97e-01h  1
iter    objective    inf_pr   inf_du lg(mu)  ||d||  lg(rg) alpha_du alpha_pr  ls
  40 -1.3317209e-01 7.26e+00 3.00e+02  -6.0 2.58e+03    -  1.91e-01 1.30e-01h  1
  41 -1.3328460e-01 2.56e+00 6.69e+01  -6.0 2.82e+02  -8.7 1.00e+00 6.72e-01h  1
  42 -1.3328490e-01 2.32e+00 6.07e+01  -6.0 6.72e+00  -6.5 9.56e-02 9.39e-02h  1
  43 -1.3330455e-01 2.24e+00 5.93e+01  -6.0 2.78e+03    -  1.69e-01 3.76e-02h  1
  44 -1.3335901e-01 2.00e+00 5.34e+01  -6.0 2.41e+03    -  2.01e-01 1.10e-01h  1
  45 -1.3361944e-01 5.24e+00 4.23e+01  -6.0 1.90e+03    -  6.53e-02 5.31e-01h  1
  46 -1.3363064e-01 4.06e+00 3.71e+01  -6.0 1.71e+03    -  1.62e-01 2.27e-01h  1
  47 -1.3363832e-01 4.27e+00 3.38e+01  -6.0 3.32e+03    -  9.44e-02 9.36e-02h  1
  48 -1.3364667e-01 4.19e+00 4.32e+01  -6.0 2.19e+03    -  4.81e-01 1.19e-01h  1
  49 -1.3362421e-01 4.11e+00 4.54e+01  -6.0 1.39e+04    -  3.45e-02 1.81e-02h  1
iter    objective    inf_pr   inf_du lg(mu)  ||d||  lg(rg) alpha_du alpha_pr  ls
  50 -1.3371146e-01 3.70e+00 3.70e+01  -6.0 3.86e+03    -  1.25e-01 1.77e-01h  1
  51 -1.3365593e-01 1.24e+00 9.39e+00  -6.0 1.82e+02  -6.9 3.32e-03 7.30e-01f  1
  52 -1.3365903e-01 8.47e-01 9.04e+00  -6.0 1.29e+01  -7.4 6.85e-01 3.16e-01h  1
  53 -1.3368070e-01 8.13e-01 5.13e+00  -6.0 6.08e+03    -  6.11e-02 3.93e-02h  1
  54 -1.3394205e-01 1.05e+00 3.37e+01  -6.0 3.39e+03    -  6.50e-02 7.06e-01h  1
  55 -1.3389103e-01 4.61e-02 6.80e-01  -6.0 1.27e+01  -7.9 1.00e+00 1.00e+00f  1
  56 -1.3392280e-01 1.59e-01 1.20e+00  -6.0 4.77e+01  -8.4 1.00e+00 1.00e+00h  1
  57 -1.3401623e-01 7.84e-01 6.30e+00  -6.0 9.08e+01  -8.9 1.00e+00 1.00e+00h  1
  58 -1.3423532e-01 1.82e+00 8.99e+00  -6.0 2.66e+03    -  3.49e-01 3.28e-01h  1
  59 -1.3428375e-01 2.92e+00 3.57e+02  -6.0 6.59e+01  -8.4 2.06e-01 8.83e-01h  1
iter    objective    inf_pr   inf_du lg(mu)  ||d||  lg(rg) alpha_du alpha_pr  ls
  60 -1.3444447e-01 4.45e+00 2.63e+02  -6.0 4.48e+02  -8.9 2.56e-01 2.64e-01h  1
  61 -1.3438545e-01 4.70e-01 2.57e+00  -6.0 1.46e+02  -9.4 1.00e+00 1.00e+00h  1
  62 -1.3453655e-01 2.10e+00 7.71e+00  -6.0 3.11e+02  -9.0 2.85e-01 2.98e-01h  1
  63 -1.3467580e-01 5.82e+00 1.89e+01  -6.0 2.40e+02  -9.4 8.23e-01 8.47e-01h  1
  64 -1.3481087e-01 4.38e+00 1.70e+02  -6.0 5.37e+02  -9.9 4.22e-01 3.13e-01h  1
  65 -1.3480952e-01 4.05e+00 4.35e+02  -6.0 1.61e+03 -10.4 1.73e-01 8.17e-02h  1
  66 -1.3484557e-01 3.83e+00 1.11e+03  -6.0 5.88e+03    -  2.63e-01 5.85e-02h  1
  67 -1.3499055e-01 2.41e+01 1.22e+03  -6.0 3.08e+03    -  6.16e-01 3.75e-01h  1
  68 -1.3511016e-01 1.68e+01 1.78e+03  -6.0 1.46e+03    -  2.03e-01 6.77e-01h  1
  69 -1.3535566e-01 1.51e+01 3.86e+03  -6.0 3.62e+03 -10.9 1.65e-01 2.71e-01h  1
iter    objective    inf_pr   inf_du lg(mu)  ||d||  lg(rg) alpha_du alpha_pr  ls
  70 -1.3544061e-01 1.34e+01 1.72e+03  -6.0 8.31e+02    -  2.27e-01 1.23e-01h  1
  71 -1.3566731e-01 9.60e+00 4.89e+06  -6.0 1.86e+03    -  1.34e-03 3.26e-01h  1
  72 -1.3544779e-01 1.61e+00 3.09e+03  -6.0 3.96e+02    -  2.04e-01 1.00e+00h  1
  73 -1.3547539e-01 1.34e+00 2.39e+03  -6.0 2.70e+02    -  3.67e-01 2.26e-01h  1
  74 -1.3553611e-01 1.28e+00 1.75e+03  -6.0 2.81e+02    -  1.00e+00 5.83e-01h  1
  75 -1.3554010e-01 1.26e+00 1.59e+03  -6.0 1.24e+03 -10.4 1.37e-02 1.35e-02H  1
  76 -1.3558623e-01 6.40e+00 5.38e+02  -6.0 1.35e+03    -  3.51e-02 4.47e-01f  2
  77 -1.3564958e-01 1.63e+00 1.40e+02  -6.0 1.39e+02 -10.0 2.23e-01 7.46e-01h  1
  78 -1.3552583e-01 7.85e-01 6.62e+01  -6.0 1.45e+02  -9.6 1.00e+00 5.22e-01h  1
  79 -1.3543238e-01 2.29e-01 7.57e+01  -6.0 1.13e+02 -10.1 5.80e-03 1.00e+00h  1
iter    objective    inf_pr   inf_du lg(mu)  ||d||  lg(rg) alpha_du alpha_pr  ls
  80 -1.3544268e-01 2.71e-01 3.64e+01  -6.0 3.00e+02 -10.5 9.89e-01 2.50e-01h  3
  81 -1.3546310e-01 4.02e-02 4.37e-02  -6.0 4.72e+01  -9.2 1.00e+00 1.00e+00h  1
  82 -1.3563569e-01 1.74e-01 9.78e-01  -6.0 1.80e+02  -9.7 5.61e-01 5.17e-01h  1
  83 -1.3562252e-01 1.84e+00 7.00e-02  -6.0 5.83e+02 -10.2 1.00e+00 1.00e+00H  1
  84 -1.3573875e-01 1.45e-01 5.69e-01  -6.0 1.89e+02  -9.7 7.67e-01 7.38e-01h  1
  85 -1.3584341e-01 2.29e+00 1.42e+00  -6.0 1.06e+03 -10.2 8.18e-01 8.42e-01H  1
  86 -1.3592215e-01 3.71e+00 5.01e+01  -6.0 7.83e+02  -9.8 2.73e-01 1.00e+00H  1
  87 -1.3595616e-01 2.64e+00 3.19e+01  -6.0 8.92e+02 -10.3 5.86e-01 2.94e-01h  1
  88 -1.3598563e-01 6.35e+00 5.15e+01  -6.0 8.97e+02    -  1.00e+00 6.66e-01h  1
  89 -1.3604843e-01 4.37e+00 1.26e+02  -6.0 5.31e+02    -  5.27e-01 9.66e-01h  1
iter    objective    inf_pr   inf_du lg(mu)  ||d||  lg(rg) alpha_du alpha_pr  ls
  90 -1.3608987e-01 3.33e+00 7.84e+02  -6.0 5.71e+02    -  9.04e-01 2.45e-01h  1
  91 -1.3617628e-01 4.88e-01 2.35e+02  -6.0 3.19e+02    -  5.15e-01 1.00e+00h  1
  92 -1.3623363e-01 1.05e+00 1.06e+03  -6.0 7.13e+02    -  6.45e-01 2.96e-01h  1
  93 -1.3612990e-01 8.19e+00 1.67e+05  -6.0 2.55e+02    -  2.40e-02 1.00e+00h  1
  94 -1.3616558e-01 2.54e-01 2.62e+02  -6.0 1.75e+02    -  8.12e-01 1.00e+00h  1
  95 -1.3610157e-01 4.97e+00 9.70e+00  -6.0 1.36e+02  -8.9 1.00e+00 1.00e+00h  1
  96 -1.3616508e-01 1.67e+01 1.75e+01  -6.0 2.44e+03    -  3.29e-01 3.39e-01h  1
  97 -1.3770182e-01 4.62e+01 1.16e+02  -6.0 5.75e+03    -  6.27e-02 4.72e-01h  1
  98 -1.3755515e-01 3.97e+01 2.29e+02  -6.0 4.65e+01  -7.6 2.90e-01 1.40e-01h  1
  99 -1.3684898e-01 1.00e+01 9.10e+01  -6.0 3.07e+01  -8.1 5.41e-01 1.00e+00h  1
iter    objective    inf_pr   inf_du lg(mu)  ||d||  lg(rg) alpha_du alpha_pr  ls
 100 -1.3668560e-01 5.93e-01 1.20e+01  -6.0 9.83e+02    -  7.11e-01 1.00e+00H  1
 101 -1.3667100e-01 1.86e-01 8.15e-01  -6.0 1.09e+02    -  1.00e+00 1.00e+00h  1
 102 -1.3666852e-01 3.92e-03 9.88e-03  -6.0 1.55e+01    -  1.00e+00 1.00e+00h  1
 103 -1.3666840e-01 2.47e-05 1.09e-04  -6.0 5.23e-01    -  1.00e+00 1.00e+00h  1
 104 -1.3666840e-01 2.83e-10 2.27e-10  -6.0 1.03e-03    -  1.00e+00 1.00e+00h  1
 105 -1.3735362e-01 1.03e+01 7.90e+01  -7.5 3.81e+03    -  1.04e-01 1.90e-01f  1
 106 -1.3757853e-01 9.38e+00 7.60e+01  -7.5 3.49e+03    -  9.39e-02 1.08e-01h  1
 107 -1.3771719e-01 9.39e+00 2.97e+01  -7.5 3.23e+03    -  2.48e-01 8.12e-02h  1
 108 -1.3792605e-01 1.11e+01 3.42e+01  -7.5 3.06e+03    -  2.63e-01 1.42e-01h  1
 109 -1.3792793e-01 1.11e+01 1.03e+02  -7.5 9.22e+01  -8.6 4.94e-01 2.91e-03h  1
iter    objective    inf_pr   inf_du lg(mu)  ||d||  lg(rg) alpha_du alpha_pr  ls
 110 -1.3819145e-01 1.53e+01 6.83e+01  -7.5 3.40e+03    -  9.88e-03 2.10e-01h  1
 111 -1.3819458e-01 1.52e+01 7.39e+01  -7.5 2.39e+02  -9.0 1.10e-01 7.97e-03h  1
 112 -1.3824891e-01 8.49e+00 1.62e+02  -7.5 3.33e+01  -7.7 9.60e-02 4.40e-01f  1
 113 -1.3826985e-01 7.57e+00 3.61e+01  -7.5 1.05e+02  -8.2 7.71e-02 1.09e-01h  1
 114 -1.3831007e-01 5.65e+00 4.13e+01  -7.5 3.60e+01  -7.8 3.94e-01 3.34e-01h  1
 115 -1.3850161e-01 5.28e-01 2.07e+02  -7.5 9.11e+01  -8.2 4.72e-01 1.00e+00h  1
 116 -1.3882899e-01 7.05e+00 2.82e+02  -7.5 5.43e+03    -  3.40e-03 1.15e-01h  1
 117 -1.3888732e-01 6.62e+00 3.74e+02  -7.5 3.70e+03    -  8.70e-03 9.46e-02h  1
 118 -1.3889851e-01 6.48e+00 1.58e+02  -7.5 3.67e+03    -  2.48e-01 2.13e-02h  1
 119 -1.3891900e-01 6.20e+00 1.51e+02  -7.5 1.69e+03    -  6.89e-02 4.54e-02h  1
iter    objective    inf_pr   inf_du lg(mu)  ||d||  lg(rg) alpha_du alpha_pr  ls
 120 -1.3893389e-01 5.89e+00 1.43e+02  -7.5 1.48e+03    -  3.22e-02 5.07e-02h  1
 121 -1.3896184e-01 5.41e+00 1.30e+02  -7.5 1.61e+03    -  1.64e-01 8.90e-02h  1
 122 -1.3922476e-01 1.02e+01 1.24e+03  -7.5 1.49e+03    -  1.02e-01 9.27e-01h  1
 123 -1.3932984e-01 2.23e+00 4.36e+03  -7.5 2.57e+01  -8.7 1.42e-01 7.81e-01h  1
 124 -1.3941864e-01 1.32e+00 5.73e+03  -7.5 7.49e+01  -9.2 2.76e-01 4.10e-01h  1
 125 -1.3941789e-01 1.29e+00 3.66e+05  -7.5 6.58e+02  -9.7 4.43e-04 1.97e-02h  1
 126 -1.3945075e-01 3.56e+01 3.40e+05  -7.5 1.96e+04    -  2.97e-03 7.08e-02f  1
 127 -1.3945200e-01 3.49e+01 3.33e+05  -7.5 5.25e+02    -  4.53e-04 2.19e-02h  1
 128 -1.3949219e-01 2.23e+01 8.69e+04  -7.5 1.14e+03    -  1.29e-01 7.36e-01f  1
 129 -1.3949494e-01 2.07e+01 8.06e+04  -7.5 1.25e+03    -  6.44e-02 7.20e-02h  1
iter    objective    inf_pr   inf_du lg(mu)  ||d||  lg(rg) alpha_du alpha_pr  ls
 130 -1.3952985e-01 1.07e+01 3.65e+04  -7.5 4.57e+02    -  2.19e-01 5.47e-01h  1
 131 -1.3958846e-01 7.65e+00 2.51e+04  -7.5 3.75e+02    -  3.81e-01 3.10e-01h  1
 132 -1.3953795e-01 1.27e+00 7.75e+01  -7.5 2.49e+02    -  8.10e-01 1.00e+00h  1
 133 -1.3956292e-01 1.23e+00 7.47e+01  -7.5 3.28e+03    -  9.64e-02 3.53e-02h  1
 134 -1.3963138e-01 7.97e+00 2.34e+01  -7.5 1.21e+03    -  1.00e+00 6.88e-01f  1
 135 -1.3968784e-01 6.34e-02 6.76e+00  -7.5 1.69e+01 -10.2 5.03e-01 1.00e+00h  1
 136 -1.3971993e-01 4.26e-02 1.23e+01  -7.5 2.67e+01 -10.6 8.31e-01 5.70e-01h  1
 137 -1.3977770e-01 8.48e-02 1.60e+01  -7.5 6.38e+01 -11.1 8.01e-01 1.00e+00h  1
 138 -1.3980450e-01 1.07e+00 5.52e+01  -7.5 3.63e+02    -  2.66e-01 4.26e-01h  1
 139 -1.3986890e-01 2.14e-01 4.14e+02  -7.5 4.73e+01 -11.6 1.54e-01 1.00e+00h  1
iter    objective    inf_pr   inf_du lg(mu)  ||d||  lg(rg) alpha_du alpha_pr  ls
 140 -1.3988196e-01 1.93e-01 1.14e+02  -7.5 3.17e+02 -12.1 4.09e-01 1.58e-01h  1
 141 -1.3989943e-01 1.03e+00 2.28e+02  -7.5 4.94e+02 -11.6 2.91e-01 2.08e-01h  1
 142 -1.3994981e-01 4.52e+00 9.66e+02  -7.5 8.62e+02    -  6.13e-02 5.67e-01h  1
 143 -1.3996071e-01 4.04e+00 2.16e+03  -7.5 2.88e+02 -12.1 6.10e-01 1.09e-01h  1
 144 -1.3996961e-01 6.20e+00 1.98e+03  -7.5 6.85e+03 -12.6 9.06e-02 8.52e-02h  1
 145 -1.3997972e-01 5.93e+00 1.78e+03  -7.5 1.72e+03    -  7.62e-02 9.29e-02h  1
 146 -1.3997970e-01 5.93e+00 1.75e+03  -7.5 1.31e+04  -7.6 4.46e-05 7.83e-05h  1
 147 -1.3998022e-01 5.89e+00 1.97e+03  -7.5 3.49e+01  -6.3 4.48e-03 5.65e-03h  1
 148 -1.3998137e-01 5.74e+00 2.24e+03  -7.5 4.72e+01  -6.8 2.33e-02 2.55e-02f  1
 149 -1.3998244e-01 5.58e+00 2.35e+03  -7.5 5.85e+01  -7.3 2.53e-02 2.87e-02h  1
iter    objective    inf_pr   inf_du lg(mu)  ||d||  lg(rg) alpha_du alpha_pr  ls
 150 -1.3998197e-01 3.80e+00 2.20e+03  -7.5 6.94e+00  -7.7 8.71e-01 3.19e-01h  1
 151 -1.3999179e-01 2.45e-01 1.30e+03  -7.5 1.85e+01  -8.2 4.22e-01 9.36e-01h  1
 152 -1.3999131e-01 4.59e-02 1.86e+00  -7.5 1.77e+01  -8.7 1.00e+00 1.00e+00h  1
 153 -1.3999183e-01 2.67e-01 1.85e+00  -7.5 6.40e+03    -  3.23e-02 7.13e-03h  2
 154 -1.3999193e-01 1.92e-01 1.41e+01  -7.5 1.12e+01  -8.3 1.76e-01 2.87e-01h  2
 155 -1.3999208e-01 8.66e-02 1.10e+01  -7.5 1.72e+00  -7.9 1.00e+00 5.48e-01h  1
 156 -1.3999277e-01 5.25e-03 6.34e+00  -7.5 7.38e+00  -8.3 7.39e-01 1.00e+00h  1
 157 -1.3999273e-01 3.17e-03 3.26e+02  -7.5 4.03e+00  -7.0 2.03e-01 5.21e-01h  1
 158 -1.3999317e-01 1.50e-03 1.72e+02  -7.5 6.02e-01  -6.6 1.00e+00 5.31e-01f  1
 159 -1.3999283e-01 6.47e-05 6.60e+01  -7.5 6.98e-01  -7.1 9.52e-01 1.00e+00f  1
iter    objective    inf_pr   inf_du lg(mu)  ||d||  lg(rg) alpha_du alpha_pr  ls
 160 -1.3999293e-01 9.88e-06 2.39e+02  -7.5 4.87e-02  -3.9 1.00e+00 8.48e-01h  1
 161 -1.3999317e-01 8.74e-04 2.35e+02  -7.5 4.96e+02    -  6.04e-04 1.08e-02f  2
 162 -1.3999348e-01 5.35e-04 1.86e+02  -7.5 4.72e-02  -4.4 8.51e-01 3.88e-01h  1
 163 -1.3999348e-01 5.35e-04 1.86e+02  -7.5 6.21e-01  -4.9 1.94e-02 5.07e-04h  2
 164 -1.3999352e-01 4.30e-08 2.61e+00  -7.5 1.78e-02  -5.3 9.66e-01 1.00e+00h  1
 165 -1.3999347e-01 5.29e-06 1.62e+00  -7.5 3.89e-02  -5.8 1.00e+00 1.00e+00h  1
 166 -1.3999348e-01 2.26e-06 1.73e+00  -7.5 9.96e-02  -6.3 1.00e+00 1.00e+00h  1
 167 -1.3999352e-01 9.37e-06 7.07e-02  -7.5 3.09e-01  -6.8 1.00e+00 1.00e+00h  1
 168 -1.3999362e-01 7.94e-05 1.56e+00  -7.5 8.90e-01  -7.3 1.00e+00 1.00e+00h  1
 169 -1.3999390e-01 6.17e-04 6.66e+00  -7.5 2.42e+00  -7.7 1.00e+00 1.00e+00h  1
iter    objective    inf_pr   inf_du lg(mu)  ||d||  lg(rg) alpha_du alpha_pr  ls
 170 -1.3999465e-01 4.71e-03 9.96e+00  -7.5 6.42e+00  -8.2 1.00e+00 1.00e+00h  1
 171 -1.3999656e-01 3.30e-02 3.25e+00  -7.5 1.67e+01  -8.7 1.00e+00 1.00e+00h  1
 172 -1.3999726e-01 8.79e-01 3.46e+00  -7.5 4.44e+03    -  3.87e-01 1.91e-02h  1
 173 -1.4000118e-01 7.27e-01 1.10e+01  -7.5 4.64e+02    -  5.77e-01 2.15e-01h  1
 174 -1.4000882e-01 1.01e+00 2.76e+01  -7.5 5.60e+02    -  3.98e-01 5.17e-01H  1
 175 -1.4000888e-01 1.01e+00 1.41e+01  -7.5 6.88e+02    -  1.00e+00 8.13e-03h  1
 176 -1.4000955e-01 8.54e-01 1.03e+01  -7.5 4.70e+02    -  1.22e-01 1.86e-01h  1
 177 -1.4000974e-01 4.59e-02 3.58e-01  -7.5 1.67e+01  -9.2 1.00e+00 1.00e+00h  1
 178 -1.4001134e-01 8.28e-02 2.62e-01  -7.5 2.62e+01  -9.6 1.00e+00 1.00e+00h  1
 179 -1.4001139e-01 9.31e-01 2.16e-01  -7.5 2.07e+03    -  2.24e-01 9.59e-02h  1
iter    objective    inf_pr   inf_du lg(mu)  ||d||  lg(rg) alpha_du alpha_pr  ls
 180 -1.4001159e-01 8.45e-01 2.84e-01  -7.5 7.21e+02    -  1.00e+00 9.30e-02h  1
 181 -1.4001270e-01 6.67e-01 1.86e-01  -7.5 2.81e+02    -  1.00e+00 3.05e-01h  1
 182 -1.4000819e-01 2.78e-01 3.37e+00  -7.5 1.53e+02    -  1.63e-01 1.00e+00h  1
 183 -1.4001011e-01 7.37e-02 1.21e+00  -7.5 5.81e+01    -  1.00e+00 8.35e-01h  1
 184 -1.4001272e-01 1.37e-01 7.91e-01  -7.5 1.08e+02    -  1.00e+00 1.00e+00h  1
 185 -1.4001353e-01 4.29e-02 1.11e-01  -7.5 5.08e+01    -  1.00e+00 1.00e+00h  1
 186 -1.4001363e-01 1.92e-03 2.32e-03  -7.5 7.42e+00    -  1.00e+00 1.00e+00h  1
 187 -1.4001363e-01 4.83e-07 4.99e-07  -7.5 1.10e-01    -  1.00e+00 1.00e+00h  1
 188 -1.4001363e-01 2.83e-10 5.90e-12  -7.5 1.67e-06    -  1.00e+00 1.00e+00h  1
 189 -1.4002398e-01 2.36e+00 3.98e+00  -9.0 5.94e+02    -  2.40e-01 4.34e-01h  1
iter    objective    inf_pr   inf_du lg(mu)  ||d||  lg(rg) alpha_du alpha_pr  ls
 190 -1.4002465e-01 2.26e+00 3.61e+00  -9.0 1.74e+03    -  1.41e-01 2.95e-02h  1
 191 -1.4002796e-01 2.74e+00 5.47e+00  -9.0 1.26e+03    -  3.48e-01 2.10e-01h  1
 192 -1.4003399e-01 5.42e+00 1.59e+01  -9.0 1.33e+03    -  9.27e-02 4.66e-01h  1
 193 -1.4004145e-01 1.72e+01 6.39e+00  -9.0 2.30e+03    -  2.13e-02 4.68e-01h  1
 194 -1.4004130e-01 1.21e+01 1.01e+01  -9.0 5.87e+01 -10.1 4.27e-02 2.98e-01h  1
 195 -1.4004187e-01 7.23e-01 4.35e+01  -9.0 1.90e+02 -10.6 4.06e-01 9.82e-01h  1
 196 -1.4004993e-01 2.29e+01 5.54e+00  -9.0 2.69e+03    -  1.18e-01 4.93e-01h  1
 197 -1.4004932e-01 2.24e+01 2.36e+01  -9.0 3.69e+03    -  9.20e-02 3.06e-02h  1
 198 -1.4004917e-01 2.14e+01 3.23e+01  -9.0 5.45e+02    -  4.88e-03 4.42e-02h  1
 199 -1.4005157e-01 1.78e+01 2.25e+02  -9.0 1.51e+03    -  1.54e-01 3.19e-01h  1
iter    objective    inf_pr   inf_du lg(mu)  ||d||  lg(rg) alpha_du alpha_pr  ls
 200 -1.4005469e-01 6.67e+00 3.61e+02  -9.0 6.80e+02    -  2.04e-01 1.00e+00h  1
 201 -1.4005717e-01 3.93e+00 2.04e+02  -9.0 5.22e+02 -11.1 6.49e-01 1.00e+00h  1
 202 -1.4006759e-01 7.26e+01 8.97e+01  -9.0 4.32e+03    -  2.13e-01 5.14e-01h  1
 203 -1.4006339e-01 7.51e+01 2.87e+02  -9.0 5.46e+03    -  6.74e-03 1.86e-01h  1
 204 -1.4006336e-01 3.97e+01 1.72e+02  -9.0 2.95e+02    -  1.86e-04 4.74e-01h  1
 205 -1.4006956e-01 3.83e+01 2.79e+02  -9.0 1.55e+03 -11.6 6.12e-01 1.00e+00h  1
 206 -1.4007379e-01 5.19e+01 2.00e+02  -9.0 6.63e+03    -  4.68e-01 1.67e-01h  1
 207 -1.4007483e-01 2.92e+00 1.78e+01  -9.0 4.34e+02    -  2.33e-01 1.00e+00h  1
 208 -1.4008131e-01 5.48e+01 1.14e+01  -9.0 4.70e+03 -12.0 8.66e-01 3.73e-01h  1
 209 -1.4008364e-01 4.13e+01 2.06e+01  -9.0 1.98e+03    -  1.14e-02 4.00e-01h  1
iter    objective    inf_pr   inf_du lg(mu)  ||d||  lg(rg) alpha_du alpha_pr  ls
 210 -1.4008627e-01 2.97e+01 2.70e+03  -9.0 1.80e+03    -  2.49e-03 5.00e-01h  1
 211 -1.4009208e-01 5.98e+01 5.63e+02  -9.0 2.35e+03    -  7.28e-01 7.91e-01h  1
 212 -1.4008895e-01 4.40e+00 5.72e+01  -9.0 5.61e+02    -  3.19e-02 1.00e+00h  1
 213 -1.4008930e-01 4.96e+00 1.48e-01  -9.0 5.46e+02    -  1.00e+00 1.00e+00h  1
 214 -1.4008938e-01 3.41e-02 1.05e-02  -9.0 4.99e+01    -  9.86e-01 1.00e+00h  1
 215 -1.4008939e-01 1.57e-04 4.86e-06  -9.0 3.02e+00    -  1.00e+00 1.00e+00h  1
 216 -1.4008939e-01 2.82e-10 9.07e-12  -9.0 9.12e-04    -  1.00e+00 1.00e+00h  1

Number of Iterations....: 216

                                   (scaled)                 (unscaled)
Objective...............:  -1.4008938559395864e-01   -1.4008938559395864e-01
Dual infeasibility......:   9.0660812190890283e-12    9.0660812190890283e-12
Constraint violation....:   2.8243098495767810e-10    2.8243098495767810e-10
Complementarity.........:   9.0909092192213900e-10    9.0909092192213900e-10
Overall NLP error.......:   9.0909092192213900e-10    9.0909092192213900e-10


Number of objective function evaluations             = 248
Number of objective gradient evaluations             = 217
Number of equality constraint evaluations            = 248
Number of inequality constraint evaluations          = 249
Number of equality constraint Jacobian evaluations   = 217
Number of inequality constraint Jacobian evaluations = 217
Number of Lagrangian Hessian evaluations             = 216
Total CPU secs in IPOPT (w/o function evaluations)   =    171.793
Total CPU secs in NLP function evaluations           =      3.367

EXIT: Optimal Solution Found.
